Input_Data

VEHICLE
NUMBER     CAPACITY
  10         70

CUSTOMER
CUST NO.   XCOORD.  YCOORD.    DEMAND    READY TIME  DUE DATE  SERVICE   TIME
 
    0      40         50         10          0       0          0   
    1      45         68         10          0       0         10   
    2      45         70         10          0       0         10   
    3      42         66         10          0       0         10   
    4      42         68         10          0       0         10   
    5      42         65         10          0       0         10   
    6      40         69         10          0       0         10   
    7      40         66         10          0       0         10   
    8      38         68         10          0       0         10   
    9      38         70         10          0       0         10   
   10      35         66         10          0       0         10   
   11      35         69         10          0       0         10   
   12      25         85         10          0       0         10   
   13      22         75         10          0       0         10   
   14      22         85         10          0       0         10   
   15      20         80         10          0       0         10   
   16      20         85         10          0       0         10   
   17      18         75         10          0       0         10   
   18      15         75         10          0       0         10   
   19      15         80         10          0       0         10   
   20      30         50         10          0       0         10   
   21      30         52         10          0       0         10   
   22      28         52         10          0       0         10   
   23      28         55         10          0       0         10   
   24      25         50         10          0       0         10   
   25      25         52         10          0       0         10